p cnf 245 546
e 1 2 3 4 5 6 7 8 9 10 11 12 13 14 15 16 17 18 0
a 19 20 21 22 23 24 25 26 27 28 29 30 31 32 33 34 35 36 0
e 37 38 39 40 41 42 43 44 45 46 47 48 49 50 51 52 53 54 0
a 55 56 57 58 59 60 61 62 63 64 65 66 67 68 69 70 71 72 0
e 73 74 75 76 77 78 79 80 81 175 211 214 149 235 243 83 105 143 147 185 222 104 117 130 199 95 158 170 212 217 230 103 118 134 146 148 159 186 207 91 99 113 84 96 107 208 111 154 102 115 121 138 82 190 241 140 137 144 196 225 85 126 237 87 163 151 244 109 122 161 120 139 162 216 223 114 160 215 100 124 141 150 238 131 209 129 227 88 231 232 242 167 176 192 89 229 157 98 133 127 128 164 132 142 152 218 221 224 168 106 172 189 206 173 110 116 240 183 210 181 193 219 97 135 153 169 178 182 202 234 213 220 228 239 203 226 86 166 177 108 155 184 179 195 200 201 236 93 197 233 90 92 136 198 119 188 191 112 123 145 156 171 245 94 180 187 204 194 205 101 125 165 174 0
-83 0
-82 0
-73 84 0
73 -84 0
-74 85 0
74 -85 0
-75 86 0
75 -86 0
-76 87 0
76 -87 0
-77 88 0
77 -88 0
-78 89 0
78 -89 0
-79 90 0
79 -90 0
-80 91 0
80 -91 0
-81 92 0
81 -92 0
-1 10 0
-2 11 0
-3 12 0
-4 13 0
-5 14 0
-6 15 0
-7 16 0
-8 17 0
-9 18 0
-10 37 0
-11 38 0
-12 39 0
-13 40 0
-14 41 0
-15 42 0
-16 43 0
-17 44 0
-18 45 0
-37 46 0
-38 47 0
-39 48 0
-40 49 0
-41 50 0
-42 51 0
-43 52 0
-44 53 0
-45 54 0
-46 73 0
-47 74 0
-48 75 0
-49 76 0
-50 77 0
-51 78 0
-52 79 0
-53 80 0
-54 81 0
93 -1 0
-93 1 0
-93 94 0
94 -2 0
93 -94 2 0
-93 95 -2 0
-95 2 0
93 -95 0
-94 96 0
96 -3 0
94 -96 3 0
-95 97 0
-94 97 -3 0
95 -97 3 0
94 -97 0
-96 98 0
98 -4 0
96 -98 4 0
-97 99 0
-96 99 -4 0
97 -99 4 0
96 -99 0
-98 100 0
100 -5 0
98 -100 5 0
-99 101 0
-98 101 -5 0
99 -101 5 0
98 -101 0
-100 102 0
102 -6 0
100 -102 6 0
-101 103 0
-100 103 -6 0
101 -103 6 0
100 -103 0
-102 104 0
104 -7 0
102 -104 7 0
-103 105 0
-102 105 -7 0
103 -105 7 0
102 -105 0
-104 106 0
106 -8 0
104 -106 8 0
-105 107 0
-104 107 -8 0
105 -107 8 0
104 -107 0
-106 108 0
108 -9 0
106 -108 9 0
-107 109 0
-106 109 -9 0
107 -109 9 0
106 -109 0
110 1 -10 0
-110 -1 0
-110 10 0
-110 111 0
111 2 -11 0
110 -111 -2 0
110 -111 11 0
-110 112 2 -11 0
-112 -2 0
-112 11 0
110 -112 0
-111 113 0
113 3 -12 0
111 -113 -3 0
111 -113 12 0
-112 114 0
-111 114 3 -12 0
112 -114 -3 0
112 -114 12 0
111 -114 0
-113 115 0
115 4 -13 0
113 -115 -4 0
113 -115 13 0
-114 116 0
-113 116 4 -13 0
114 -116 -4 0
114 -116 13 0
113 -116 0
-115 117 0
117 5 -14 0
115 -117 -5 0
115 -117 14 0
-116 118 0
-115 118 5 -14 0
116 -118 -5 0
116 -118 14 0
115 -118 0
-117 119 0
119 6 -15 0
117 -119 -6 0
117 -119 15 0
-118 120 0
-117 120 6 -15 0
118 -120 -6 0
118 -120 15 0
117 -120 0
-119 121 0
121 7 -16 0
119 -121 -7 0
119 -121 16 0
-120 122 0
-119 122 7 -16 0
120 -122 -7 0
120 -122 16 0
119 -122 0
-121 123 0
123 8 -17 0
121 -123 -8 0
121 -123 17 0
-122 124 0
-121 124 8 -17 0
122 -124 -8 0
122 -124 17 0
121 -124 0
-123 125 0
125 9 -18 0
123 -125 -9 0
123 -125 18 0
-124 126 0
-123 126 9 -18 0
124 -126 -9 0
124 -126 18 0
123 -126 0
127 10 -37 0
-127 -10 0
-127 37 0
-127 128 0
128 11 -38 0
127 -128 -11 0
127 -128 38 0
-127 129 11 -38 0
-129 -11 0
-129 38 0
127 -129 0
-128 130 0
130 12 -39 0
128 -130 -12 0
128 -130 39 0
-129 131 0
-128 131 12 -39 0
129 -131 -12 0
129 -131 39 0
128 -131 0
-130 132 0
132 13 -40 0
130 -132 -13 0
130 -132 40 0
-131 133 0
-130 133 13 -40 0
131 -133 -13 0
131 -133 40 0
130 -133 0
-132 134 0
134 14 -41 0
132 -134 -14 0
132 -134 41 0
-133 135 0
-132 135 14 -41 0
133 -135 -14 0
133 -135 41 0
132 -135 0
-134 136 0
136 15 -42 0
134 -136 -15 0
134 -136 42 0
-135 137 0
-134 137 15 -42 0
135 -137 -15 0
135 -137 42 0
134 -137 0
-136 138 0
138 16 -43 0
136 -138 -16 0
136 -138 43 0
-137 139 0
-136 139 16 -43 0
137 -139 -16 0
137 -139 43 0
136 -139 0
-138 140 0
140 17 -44 0
138 -140 -17 0
138 -140 44 0
-139 141 0
-138 141 17 -44 0
139 -141 -17 0
139 -141 44 0
138 -141 0
-140 142 0
142 18 -45 0
140 -142 -18 0
140 -142 45 0
-141 143 0
-140 143 18 -45 0
141 -143 -18 0
141 -143 45 0
140 -143 0
144 37 -46 0
-144 -37 0
-144 46 0
-144 145 0
145 38 -47 0
144 -145 -38 0
144 -145 47 0
-144 146 38 -47 0
-146 -38 0
-146 47 0
144 -146 0
-145 147 0
147 39 -48 0
145 -147 -39 0
145 -147 48 0
-146 148 0
-145 148 39 -48 0
146 -148 -39 0
146 -148 48 0
145 -148 0
-147 149 0
149 40 -49 0
147 -149 -40 0
147 -149 49 0
-148 150 0
-147 150 40 -49 0
148 -150 -40 0
148 -150 49 0
147 -150 0
-149 151 0
151 41 -50 0
149 -151 -41 0
149 -151 50 0
-150 152 0
-149 152 41 -50 0
150 -152 -41 0
150 -152 50 0
149 -152 0
-151 153 0
153 42 -51 0
151 -153 -42 0
151 -153 51 0
-152 154 0
-151 154 42 -51 0
152 -154 -42 0
152 -154 51 0
151 -154 0
-153 155 0
155 43 -52 0
153 -155 -43 0
153 -155 52 0
-154 156 0
-153 156 43 -52 0
154 -156 -43 0
154 -156 52 0
153 -156 0
-155 157 0
157 44 -53 0
155 -157 -44 0
155 -157 53 0
-156 158 0
-155 158 44 -53 0
156 -158 -44 0
156 -158 53 0
155 -158 0
-157 159 0
159 45 -54 0
157 -159 -45 0
157 -159 54 0
-158 160 0
-157 160 45 -54 0
158 -160 -45 0
158 -160 54 0
157 -160 0
161 46 -73 0
-161 -46 0
-161 73 0
-161 162 0
162 47 -74 0
161 -162 -47 0
161 -162 74 0
-161 163 47 -74 0
-163 -47 0
-163 74 0
161 -163 0
-162 164 0
164 48 -75 0
162 -164 -48 0
162 -164 75 0
-163 165 0
-162 165 48 -75 0
163 -165 -48 0
163 -165 75 0
162 -165 0
-164 166 0
166 49 -76 0
164 -166 -49 0
164 -166 76 0
-165 167 0
-164 167 49 -76 0
165 -167 -49 0
165 -167 76 0
164 -167 0
-166 168 0
168 50 -77 0
166 -168 -50 0
166 -168 77 0
-167 169 0
-166 169 50 -77 0
167 -169 -50 0
167 -169 77 0
166 -169 0
-168 170 0
170 51 -78 0
168 -170 -51 0
168 -170 78 0
-169 171 0
-168 171 51 -78 0
169 -171 -51 0
169 -171 78 0
168 -171 0
-170 172 0
172 52 -79 0
170 -172 -52 0
170 -172 79 0
-171 173 0
-170 173 52 -79 0
171 -173 -52 0
171 -173 79 0
170 -173 0
-172 174 0
174 53 -80 0
172 -174 -53 0
172 -174 80 0
-173 175 0
-172 175 53 -80 0
173 -175 -53 0
173 -175 80 0
172 -175 0
-174 176 0
176 54 -81 0
174 -176 -54 0
174 -176 81 0
-175 177 0
-174 177 54 -81 0
175 -177 -54 0
175 -177 81 0
174 -177 0
-178 19 0
178 -179 20 0
-180 20 0
178 -180 0
179 -181 21 0
180 -182 21 0
179 -182 0
181 -183 22 0
182 -184 22 0
181 -184 0
183 -185 23 0
184 -186 23 0
183 -186 0
185 -187 24 0
186 -188 24 0
185 -188 0
187 -189 25 0
188 -190 25 0
187 -190 0
189 -191 26 0
190 -192 26 0
189 -192 0
191 -193 27 0
192 -194 27 0
191 -194 0
-195 28 0
195 -196 29 0
-197 29 0
195 -197 0
196 -198 30 0
197 -199 30 0
196 -199 0
198 -200 31 0
199 -201 31 0
198 -201 0
200 -202 32 0
201 -203 32 0
200 -203 0
202 -204 33 0
203 -205 33 0
202 -205 0
204 -206 34 0
205 -207 34 0
204 -207 0
206 -208 35 0
207 -209 35 0
206 -209 0
208 -210 36 0
209 -211 36 0
208 -211 0
-212 55 0
212 -213 56 0
-214 56 0
212 -214 0
213 -215 57 0
214 -216 57 0
213 -216 0
215 -217 58 0
216 -218 58 0
215 -218 0
217 -219 59 0
218 -220 59 0
217 -220 0
219 -221 60 0
220 -222 60 0
219 -222 0
221 -223 61 0
222 -224 61 0
221 -224 0
223 -225 62 0
224 -226 62 0
223 -226 0
225 -227 63 0
226 -228 63 0
225 -228 0
-229 64 0
229 -230 65 0
-231 65 0
229 -231 0
230 -232 66 0
231 -233 66 0
230 -233 0
232 -234 67 0
233 -235 67 0
232 -235 0
234 -236 68 0
235 -237 68 0
234 -237 0
236 -238 69 0
237 -239 69 0
236 -239 0
238 -240 70 0
239 -241 70 0
238 -241 0
240 -242 71 0
241 -243 71 0
240 -243 0
242 -244 72 0
243 -245 72 0
242 -245 0
10 -19 -84 0
10 -28 -84 0
46 -55 -84 0
46 -64 -84 0
11 -20 -85 0
11 -29 -85 0
47 -56 -85 0
47 -65 -85 0
12 -21 -86 0
12 -30 -86 0
48 -57 -86 0
48 -66 -86 0
13 -22 -87 0
13 -31 -87 0
49 -58 -87 0
49 -67 -87 0
14 -23 -88 0
14 -32 -88 0
50 -59 -88 0
50 -68 -88 0
15 -24 -89 0
15 -33 -89 0
51 -60 -89 0
51 -69 -89 0
16 -25 -90 0
16 -34 -90 0
52 -61 -90 0
52 -70 -90 0
17 -26 -91 0
17 -35 -91 0
53 -62 -91 0
53 -71 -91 0
18 -27 -92 0
18 -36 -92 0
54 -63 -92 0
54 -72 -92 0
194 211 228 245 0
